p cnf 250 3050
1 2 3 4 5 0
6 7 8 9 10 0
11 12 13 14 15 0
16 17 18 19 20 0
21 22 23 24 25 0
26 27 28 29 30 0
31 32 33 34 35 0
36 37 38 39 40 0
41 42 43 44 45 0
46 47 48 49 50 0
51 52 53 54 55 0
56 57 58 59 60 0
61 62 63 64 65 0
66 67 68 69 70 0
71 72 73 74 75 0
76 77 78 79 80 0
81 82 83 84 85 0
86 87 88 89 90 0
91 92 93 94 95 0
96 97 98 99 100 0
101 102 103 104 105 0
106 107 108 109 110 0
111 112 113 114 115 0
116 117 118 119 120 0
121 122 123 124 125 0
126 127 128 129 130 0
131 132 133 134 135 0
136 137 138 139 140 0
141 142 143 144 145 0
146 147 148 149 150 0
151 152 153 154 155 0
156 157 158 159 160 0
161 162 163 164 165 0
166 167 168 169 170 0
171 172 173 174 175 0
176 177 178 179 180 0
181 182 183 184 185 0
186 187 188 189 190 0
191 192 193 194 195 0
196 197 198 199 200 0
201 202 203 204 205 0
206 207 208 209 210 0
211 212 213 214 215 0
216 217 218 219 220 0
221 222 223 224 225 0
226 227 228 229 230 0
231 232 233 234 235 0
236 237 238 239 240 0
241 242 243 244 245 0
246 247 248 249 250 0
-1 -2 0
-1 -3 0
-1 -4 0
-1 -5 0
-2 -3 0
-2 -4 0
-2 -5 0
-3 -4 0
-3 -5 0
-4 -5 0
-6 -7 0
-6 -8 0
-6 -9 0
-6 -10 0
-7 -8 0
-7 -9 0
-7 -10 0
-8 -9 0
-8 -10 0
-9 -10 0
-11 -12 0
-11 -13 0
-11 -14 0
-11 -15 0
-12 -13 0
-12 -14 0
-12 -15 0
-13 -14 0
-13 -15 0
-14 -15 0
-16 -17 0
-16 -18 0
-16 -19 0
-16 -20 0
-17 -18 0
-17 -19 0
-17 -20 0
-18 -19 0
-18 -20 0
-19 -20 0
-21 -22 0
-21 -23 0
-21 -24 0
-21 -25 0
-22 -23 0
-22 -24 0
-22 -25 0
-23 -24 0
-23 -25 0
-24 -25 0
-26 -27 0
-26 -28 0
-26 -29 0
-26 -30 0
-27 -28 0
-27 -29 0
-27 -30 0
-28 -29 0
-28 -30 0
-29 -30 0
-31 -32 0
-31 -33 0
-31 -34 0
-31 -35 0
-32 -33 0
-32 -34 0
-32 -35 0
-33 -34 0
-33 -35 0
-34 -35 0
-36 -37 0
-36 -38 0
-36 -39 0
-36 -40 0
-37 -38 0
-37 -39 0
-37 -40 0
-38 -39 0
-38 -40 0
-39 -40 0
-41 -42 0
-41 -43 0
-41 -44 0
-41 -45 0
-42 -43 0
-42 -44 0
-42 -45 0
-43 -44 0
-43 -45 0
-44 -45 0
-46 -47 0
-46 -48 0
-46 -49 0
-46 -50 0
-47 -48 0
-47 -49 0
-47 -50 0
-48 -49 0
-48 -50 0
-49 -50 0
-51 -52 0
-51 -53 0
-51 -54 0
-51 -55 0
-52 -53 0
-52 -54 0
-52 -55 0
-53 -54 0
-53 -55 0
-54 -55 0
-56 -57 0
-56 -58 0
-56 -59 0
-56 -60 0
-57 -58 0
-57 -59 0
-57 -60 0
-58 -59 0
-58 -60 0
-59 -60 0
-61 -62 0
-61 -63 0
-61 -64 0
-61 -65 0
-62 -63 0
-62 -64 0
-62 -65 0
-63 -64 0
-63 -65 0
-64 -65 0
-66 -67 0
-66 -68 0
-66 -69 0
-66 -70 0
-67 -68 0
-67 -69 0
-67 -70 0
-68 -69 0
-68 -70 0
-69 -70 0
-71 -72 0
-71 -73 0
-71 -74 0
-71 -75 0
-72 -73 0
-72 -74 0
-72 -75 0
-73 -74 0
-73 -75 0
-74 -75 0
-76 -77 0
-76 -78 0
-76 -79 0
-76 -80 0
-77 -78 0
-77 -79 0
-77 -80 0
-78 -79 0
-78 -80 0
-79 -80 0
-81 -82 0
-81 -83 0
-81 -84 0
-81 -85 0
-82 -83 0
-82 -84 0
-82 -85 0
-83 -84 0
-83 -85 0
-84 -85 0
-86 -87 0
-86 -88 0
-86 -89 0
-86 -90 0
-87 -88 0
-87 -89 0
-87 -90 0
-88 -89 0
-88 -90 0
-89 -90 0
-91 -92 0
-91 -93 0
-91 -94 0
-91 -95 0
-92 -93 0
-92 -94 0
-92 -95 0
-93 -94 0
-93 -95 0
-94 -95 0
-96 -97 0
-96 -98 0
-96 -99 0
-96 -100 0
-97 -98 0
-97 -99 0
-97 -100 0
-98 -99 0
-98 -100 0
-99 -100 0
-101 -102 0
-101 -103 0
-101 -104 0
-101 -105 0
-102 -103 0
-102 -104 0
-102 -105 0
-103 -104 0
-103 -105 0
-104 -105 0
-106 -107 0
-106 -108 0
-106 -109 0
-106 -110 0
-107 -108 0
-107 -109 0
-107 -110 0
-108 -109 0
-108 -110 0
-109 -110 0
-111 -112 0
-111 -113 0
-111 -114 0
-111 -115 0
-112 -113 0
-112 -114 0
-112 -115 0
-113 -114 0
-113 -115 0
-114 -115 0
-116 -117 0
-116 -118 0
-116 -119 0
-116 -120 0
-117 -118 0
-117 -119 0
-117 -120 0
-118 -119 0
-118 -120 0
-119 -120 0
-121 -122 0
-121 -123 0
-121 -124 0
-121 -125 0
-122 -123 0
-122 -124 0
-122 -125 0
-123 -124 0
-123 -125 0
-124 -125 0
-126 -127 0
-126 -128 0
-126 -129 0
-126 -130 0
-127 -128 0
-127 -129 0
-127 -130 0
-128 -129 0
-128 -130 0
-129 -130 0
-131 -132 0
-131 -133 0
-131 -134 0
-131 -135 0
-132 -133 0
-132 -134 0
-132 -135 0
-133 -134 0
-133 -135 0
-134 -135 0
-136 -137 0
-136 -138 0
-136 -139 0
-136 -140 0
-137 -138 0
-137 -139 0
-137 -140 0
-138 -139 0
-138 -140 0
-139 -140 0
-141 -142 0
-141 -143 0
-141 -144 0
-141 -145 0
-142 -143 0
-142 -144 0
-142 -145 0
-143 -144 0
-143 -145 0
-144 -145 0
-146 -147 0
-146 -148 0
-146 -149 0
-146 -150 0
-147 -148 0
-147 -149 0
-147 -150 0
-148 -149 0
-148 -150 0
-149 -150 0
-151 -152 0
-151 -153 0
-151 -154 0
-151 -155 0
-152 -153 0
-152 -154 0
-152 -155 0
-153 -154 0
-153 -155 0
-154 -155 0
-156 -157 0
-156 -158 0
-156 -159 0
-156 -160 0
-157 -158 0
-157 -159 0
-157 -160 0
-158 -159 0
-158 -160 0
-159 -160 0
-161 -162 0
-161 -163 0
-161 -164 0
-161 -165 0
-162 -163 0
-162 -164 0
-162 -165 0
-163 -164 0
-163 -165 0
-164 -165 0
-166 -167 0
-166 -168 0
-166 -169 0
-166 -170 0
-167 -168 0
-167 -169 0
-167 -170 0
-168 -169 0
-168 -170 0
-169 -170 0
-171 -172 0
-171 -173 0
-171 -174 0
-171 -175 0
-172 -173 0
-172 -174 0
-172 -175 0
-173 -174 0
-173 -175 0
-174 -175 0
-176 -177 0
-176 -178 0
-176 -179 0
-176 -180 0
-177 -178 0
-177 -179 0
-177 -180 0
-178 -179 0
-178 -180 0
-179 -180 0
-181 -182 0
-181 -183 0
-181 -184 0
-181 -185 0
-182 -183 0
-182 -184 0
-182 -185 0
-183 -184 0
-183 -185 0
-184 -185 0
-186 -187 0
-186 -188 0
-186 -189 0
-186 -190 0
-187 -188 0
-187 -189 0
-187 -190 0
-188 -189 0
-188 -190 0
-189 -190 0
-191 -192 0
-191 -193 0
-191 -194 0
-191 -195 0
-192 -193 0
-192 -194 0
-192 -195 0
-193 -194 0
-193 -195 0
-194 -195 0
-196 -197 0
-196 -198 0
-196 -199 0
-196 -200 0
-197 -198 0
-197 -199 0
-197 -200 0
-198 -199 0
-198 -200 0
-199 -200 0
-201 -202 0
-201 -203 0
-201 -204 0
-201 -205 0
-202 -203 0
-202 -204 0
-202 -205 0
-203 -204 0
-203 -205 0
-204 -205 0
-206 -207 0
-206 -208 0
-206 -209 0
-206 -210 0
-207 -208 0
-207 -209 0
-207 -210 0
-208 -209 0
-208 -210 0
-209 -210 0
-211 -212 0
-211 -213 0
-211 -214 0
-211 -215 0
-212 -213 0
-212 -214 0
-212 -215 0
-213 -214 0
-213 -215 0
-214 -215 0
-216 -217 0
-216 -218 0
-216 -219 0
-216 -220 0
-217 -218 0
-217 -219 0
-217 -220 0
-218 -219 0
-218 -220 0
-219 -220 0
-221 -222 0
-221 -223 0
-221 -224 0
-221 -225 0
-222 -223 0
-222 -224 0
-222 -225 0
-223 -224 0
-223 -225 0
-224 -225 0
-226 -227 0
-226 -228 0
-226 -229 0
-226 -230 0
-227 -228 0
-227 -229 0
-227 -230 0
-228 -229 0
-228 -230 0
-229 -230 0
-231 -232 0
-231 -233 0
-231 -234 0
-231 -235 0
-232 -233 0
-232 -234 0
-232 -235 0
-233 -234 0
-233 -235 0
-234 -235 0
-236 -237 0
-236 -238 0
-236 -239 0
-236 -240 0
-237 -238 0
-237 -239 0
-237 -240 0
-238 -239 0
-238 -240 0
-239 -240 0
-241 -242 0
-241 -243 0
-241 -244 0
-241 -245 0
-242 -243 0
-242 -244 0
-242 -245 0
-243 -244 0
-243 -245 0
-244 -245 0
-246 -247 0
-246 -248 0
-246 -249 0
-246 -250 0
-247 -248 0
-247 -249 0
-247 -250 0
-248 -249 0
-248 -250 0
-249 -250 0
-1 -26 0
-2 -27 0
-3 -28 0
-4 -29 0
-5 -30 0
-1 -46 0
-2 -47 0
-3 -48 0
-4 -49 0
-5 -50 0
-1 -56 0
-2 -57 0
-3 -58 0
-4 -59 0
-5 -60 0
-1 -71 0
-2 -72 0
-3 -73 0
-4 -74 0
-5 -75 0
-1 -91 0
-2 -92 0
-3 -93 0
-4 -94 0
-5 -95 0
-1 -101 0
-2 -102 0
-3 -103 0
-4 -104 0
-5 -105 0
-1 -121 0
-2 -122 0
-3 -123 0
-4 -124 0
-5 -125 0
-1 -131 0
-2 -132 0
-3 -133 0
-4 -134 0
-5 -135 0
-1 -141 0
-2 -142 0
-3 -143 0
-4 -144 0
-5 -145 0
-1 -176 0
-2 -177 0
-3 -178 0
-4 -179 0
-5 -180 0
-1 -231 0
-2 -232 0
-3 -233 0
-4 -234 0
-5 -235 0
-1 -246 0
-2 -247 0
-3 -248 0
-4 -249 0
-5 -250 0
-6 -16 0
-7 -17 0
-8 -18 0
-9 -19 0
-10 -20 0
-6 -21 0
-7 -22 0
-8 -23 0
-9 -24 0
-10 -25 0
-6 -41 0
-7 -42 0
-8 -43 0
-9 -44 0
-10 -45 0
-6 -46 0
-7 -47 0
-8 -48 0
-9 -49 0
-10 -50 0
-6 -51 0
-7 -52 0
-8 -53 0
-9 -54 0
-10 -55 0
-6 -81 0
-7 -82 0
-8 -83 0
-9 -84 0
-10 -85 0
-6 -86 0
-7 -87 0
-8 -88 0
-9 -89 0
-10 -90 0
-6 -91 0
-7 -92 0
-8 -93 0
-9 -94 0
-10 -95 0
-6 -126 0
-7 -127 0
-8 -128 0
-9 -129 0
-10 -130 0
-6 -141 0
-7 -142 0
-8 -143 0
-9 -144 0
-10 -145 0
-6 -156 0
-7 -157 0
-8 -158 0
-9 -159 0
-10 -160 0
-6 -161 0
-7 -162 0
-8 -163 0
-9 -164 0
-10 -165 0
-6 -201 0
-7 -202 0
-8 -203 0
-9 -204 0
-10 -205 0
-6 -206 0
-7 -207 0
-8 -208 0
-9 -209 0
-10 -210 0
-6 -211 0
-7 -212 0
-8 -213 0
-9 -214 0
-10 -215 0
-6 -216 0
-7 -217 0
-8 -218 0
-9 -219 0
-10 -220 0
-6 -236 0
-7 -237 0
-8 -238 0
-9 -239 0
-10 -240 0
-6 -241 0
-7 -242 0
-8 -243 0
-9 -244 0
-10 -245 0
-6 -246 0
-7 -247 0
-8 -248 0
-9 -249 0
-10 -250 0
-11 -21 0
-12 -22 0
-13 -23 0
-14 -24 0
-15 -25 0
-11 -31 0
-12 -32 0
-13 -33 0
-14 -34 0
-15 -35 0
-11 -41 0
-12 -42 0
-13 -43 0
-14 -44 0
-15 -45 0
-11 -51 0
-12 -52 0
-13 -53 0
-14 -54 0
-15 -55 0
-11 -61 0
-12 -62 0
-13 -63 0
-14 -64 0
-15 -65 0
-11 -71 0
-12 -72 0
-13 -73 0
-14 -74 0
-15 -75 0
-11 -76 0
-12 -77 0
-13 -78 0
-14 -79 0
-15 -80 0
-11 -81 0
-12 -82 0
-13 -83 0
-14 -84 0
-15 -85 0
-11 -91 0
-12 -92 0
-13 -93 0
-14 -94 0
-15 -95 0
-11 -96 0
-12 -97 0
-13 -98 0
-14 -99 0
-15 -100 0
-11 -111 0
-12 -112 0
-13 -113 0
-14 -114 0
-15 -115 0
-11 -121 0
-12 -122 0
-13 -123 0
-14 -124 0
-15 -125 0
-11 -126 0
-12 -127 0
-13 -128 0
-14 -129 0
-15 -130 0
-11 -151 0
-12 -152 0
-13 -153 0
-14 -154 0
-15 -155 0
-11 -156 0
-12 -157 0
-13 -158 0
-14 -159 0
-15 -160 0
-11 -166 0
-12 -167 0
-13 -168 0
-14 -169 0
-15 -170 0
-11 -191 0
-12 -192 0
-13 -193 0
-14 -194 0
-15 -195 0
-11 -196 0
-12 -197 0
-13 -198 0
-14 -199 0
-15 -200 0
-11 -201 0
-12 -202 0
-13 -203 0
-14 -204 0
-15 -205 0
-11 -211 0
-12 -212 0
-13 -213 0
-14 -214 0
-15 -215 0
-11 -221 0
-12 -222 0
-13 -223 0
-14 -224 0
-15 -225 0
-16 -21 0
-17 -22 0
-18 -23 0
-19 -24 0
-20 -25 0
-16 -26 0
-17 -27 0
-18 -28 0
-19 -29 0
-20 -30 0
-16 -36 0
-17 -37 0
-18 -38 0
-19 -39 0
-20 -40 0
-16 -56 0
-17 -57 0
-18 -58 0
-19 -59 0
-20 -60 0
-16 -81 0
-17 -82 0
-18 -83 0
-19 -84 0
-20 -85 0
-16 -86 0
-17 -87 0
-18 -88 0
-19 -89 0
-20 -90 0
-16 -91 0
-17 -92 0
-18 -93 0
-19 -94 0
-20 -95 0
-16 -106 0
-17 -107 0
-18 -108 0
-19 -109 0
-20 -110 0
-16 -121 0
-17 -122 0
-18 -123 0
-19 -124 0
-20 -125 0
-16 -126 0
-17 -127 0
-18 -128 0
-19 -129 0
-20 -130 0
-16 -136 0
-17 -137 0
-18 -138 0
-19 -139 0
-20 -140 0
-16 -141 0
-17 -142 0
-18 -143 0
-19 -144 0
-20 -145 0
-16 -156 0
-17 -157 0
-18 -158 0
-19 -159 0
-20 -160 0
-16 -166 0
-17 -167 0
-18 -168 0
-19 -169 0
-20 -170 0
-16 -171 0
-17 -172 0
-18 -173 0
-19 -174 0
-20 -175 0
-16 -176 0
-17 -177 0
-18 -178 0
-19 -179 0
-20 -180 0
-16 -201 0
-17 -202 0
-18 -203 0
-19 -204 0
-20 -205 0
-16 -211 0
-17 -212 0
-18 -213 0
-19 -214 0
-20 -215 0
-16 -216 0
-17 -217 0
-18 -218 0
-19 -219 0
-20 -220 0
-16 -231 0
-17 -232 0
-18 -233 0
-19 -234 0
-20 -235 0
-16 -241 0
-17 -242 0
-18 -243 0
-19 -244 0
-20 -245 0
-21 -36 0
-22 -37 0
-23 -38 0
-24 -39 0
-25 -40 0
-21 -46 0
-22 -47 0
-23 -48 0
-24 -49 0
-25 -50 0
-21 -51 0
-22 -52 0
-23 -53 0
-24 -54 0
-25 -55 0
-21 -56 0
-22 -57 0
-23 -58 0
-24 -59 0
-25 -60 0
-21 -66 0
-22 -67 0
-23 -68 0
-24 -69 0
-25 -70 0
-21 -71 0
-22 -72 0
-23 -73 0
-24 -74 0
-25 -75 0
-21 -81 0
-22 -82 0
-23 -83 0
-24 -84 0
-25 -85 0
-21 -96 0
-22 -97 0
-23 -98 0
-24 -99 0
-25 -100 0
-21 -111 0
-22 -112 0
-23 -113 0
-24 -114 0
-25 -115 0
-21 -126 0
-22 -127 0
-23 -128 0
-24 -129 0
-25 -130 0
-21 -131 0
-22 -132 0
-23 -133 0
-24 -134 0
-25 -135 0
-21 -141 0
-22 -142 0
-23 -143 0
-24 -144 0
-25 -145 0
-21 -151 0
-22 -152 0
-23 -153 0
-24 -154 0
-25 -155 0
-21 -166 0
-22 -167 0
-23 -168 0
-24 -169 0
-25 -170 0
-21 -191 0
-22 -192 0
-23 -193 0
-24 -194 0
-25 -195 0
-21 -196 0
-22 -197 0
-23 -198 0
-24 -199 0
-25 -200 0
-21 -226 0
-22 -227 0
-23 -228 0
-24 -229 0
-25 -230 0
-21 -231 0
-22 -232 0
-23 -233 0
-24 -234 0
-25 -235 0
-21 -236 0
-22 -237 0
-23 -238 0
-24 -239 0
-25 -240 0
-21 -246 0
-22 -247 0
-23 -248 0
-24 -249 0
-25 -250 0
-26 -61 0
-27 -62 0
-28 -63 0
-29 -64 0
-30 -65 0
-26 -66 0
-27 -67 0
-28 -68 0
-29 -69 0
-30 -70 0
-26 -91 0
-27 -92 0
-28 -93 0
-29 -94 0
-30 -95 0
-26 -101 0
-27 -102 0
-28 -103 0
-29 -104 0
-30 -105 0
-26 -111 0
-27 -112 0
-28 -113 0
-29 -114 0
-30 -115 0
-26 -116 0
-27 -117 0
-28 -118 0
-29 -119 0
-30 -120 0
-26 -131 0
-27 -132 0
-28 -133 0
-29 -134 0
-30 -135 0
-26 -146 0
-27 -147 0
-28 -148 0
-29 -149 0
-30 -150 0
-26 -161 0
-27 -162 0
-28 -163 0
-29 -164 0
-30 -165 0
-26 -166 0
-27 -167 0
-28 -168 0
-29 -169 0
-30 -170 0
-26 -181 0
-27 -182 0
-28 -183 0
-29 -184 0
-30 -185 0
-26 -186 0
-27 -187 0
-28 -188 0
-29 -189 0
-30 -190 0
-26 -206 0
-27 -207 0
-28 -208 0
-29 -209 0
-30 -210 0
-26 -211 0
-27 -212 0
-28 -213 0
-29 -214 0
-30 -215 0
-26 -216 0
-27 -217 0
-28 -218 0
-29 -219 0
-30 -220 0
-26 -221 0
-27 -222 0
-28 -223 0
-29 -224 0
-30 -225 0
-26 -236 0
-27 -237 0
-28 -238 0
-29 -239 0
-30 -240 0
-26 -246 0
-27 -247 0
-28 -248 0
-29 -249 0
-30 -250 0
-31 -36 0
-32 -37 0
-33 -38 0
-34 -39 0
-35 -40 0
-31 -51 0
-32 -52 0
-33 -53 0
-34 -54 0
-35 -55 0
-31 -56 0
-32 -57 0
-33 -58 0
-34 -59 0
-35 -60 0
-31 -66 0
-32 -67 0
-33 -68 0
-34 -69 0
-35 -70 0
-31 -71 0
-32 -72 0
-33 -73 0
-34 -74 0
-35 -75 0
-31 -81 0
-32 -82 0
-33 -83 0
-34 -84 0
-35 -85 0
-31 -101 0
-32 -102 0
-33 -103 0
-34 -104 0
-35 -105 0
-31 -121 0
-32 -122 0
-33 -123 0
-34 -124 0
-35 -125 0
-31 -126 0
-32 -127 0
-33 -128 0
-34 -129 0
-35 -130 0
-31 -151 0
-32 -152 0
-33 -153 0
-34 -154 0
-35 -155 0
-31 -156 0
-32 -157 0
-33 -158 0
-34 -159 0
-35 -160 0
-31 -161 0
-32 -162 0
-33 -163 0
-34 -164 0
-35 -165 0
-31 -166 0
-32 -167 0
-33 -168 0
-34 -169 0
-35 -170 0
-31 -171 0
-32 -172 0
-33 -173 0
-34 -174 0
-35 -175 0
-31 -176 0
-32 -177 0
-33 -178 0
-34 -179 0
-35 -180 0
-31 -181 0
-32 -182 0
-33 -183 0
-34 -184 0
-35 -185 0
-31 -191 0
-32 -192 0
-33 -193 0
-34 -194 0
-35 -195 0
-31 -201 0
-32 -202 0
-33 -203 0
-34 -204 0
-35 -205 0
-31 -231 0
-32 -232 0
-33 -233 0
-34 -234 0
-35 -235 0
-31 -241 0
-32 -242 0
-33 -243 0
-34 -244 0
-35 -245 0
-36 -46 0
-37 -47 0
-38 -48 0
-39 -49 0
-40 -50 0
-36 -51 0
-37 -52 0
-38 -53 0
-39 -54 0
-40 -55 0
-36 -91 0
-37 -92 0
-38 -93 0
-39 -94 0
-40 -95 0
-36 -96 0
-37 -97 0
-38 -98 0
-39 -99 0
-40 -100 0
-36 -101 0
-37 -102 0
-38 -103 0
-39 -104 0
-40 -105 0
-36 -111 0
-37 -112 0
-38 -113 0
-39 -114 0
-40 -115 0
-36 -116 0
-37 -117 0
-38 -118 0
-39 -119 0
-40 -120 0
-36 -126 0
-37 -127 0
-38 -128 0
-39 -129 0
-40 -130 0
-36 -141 0
-37 -142 0
-38 -143 0
-39 -144 0
-40 -145 0
-36 -161 0
-37 -162 0
-38 -163 0
-39 -164 0
-40 -165 0
-36 -166 0
-37 -167 0
-38 -168 0
-39 -169 0
-40 -170 0
-36 -176 0
-37 -177 0
-38 -178 0
-39 -179 0
-40 -180 0
-36 -186 0
-37 -187 0
-38 -188 0
-39 -189 0
-40 -190 0
-36 -191 0
-37 -192 0
-38 -193 0
-39 -194 0
-40 -195 0
-36 -206 0
-37 -207 0
-38 -208 0
-39 -209 0
-40 -210 0
-36 -211 0
-37 -212 0
-38 -213 0
-39 -214 0
-40 -215 0
-36 -226 0
-37 -227 0
-38 -228 0
-39 -229 0
-40 -230 0
-41 -46 0
-42 -47 0
-43 -48 0
-44 -49 0
-45 -50 0
-41 -56 0
-42 -57 0
-43 -58 0
-44 -59 0
-45 -60 0
-41 -61 0
-42 -62 0
-43 -63 0
-44 -64 0
-45 -65 0
-41 -76 0
-42 -77 0
-43 -78 0
-44 -79 0
-45 -80 0
-41 -81 0
-42 -82 0
-43 -83 0
-44 -84 0
-45 -85 0
-41 -86 0
-42 -87 0
-43 -88 0
-44 -89 0
-45 -90 0
-41 -106 0
-42 -107 0
-43 -108 0
-44 -109 0
-45 -110 0
-41 -116 0
-42 -117 0
-43 -118 0
-44 -119 0
-45 -120 0
-41 -141 0
-42 -142 0
-43 -143 0
-44 -144 0
-45 -145 0
-41 -151 0
-42 -152 0
-43 -153 0
-44 -154 0
-45 -155 0
-41 -161 0
-42 -162 0
-43 -163 0
-44 -164 0
-45 -165 0
-41 -186 0
-42 -187 0
-43 -188 0
-44 -189 0
-45 -190 0
-41 -191 0
-42 -192 0
-43 -193 0
-44 -194 0
-45 -195 0
-41 -196 0
-42 -197 0
-43 -198 0
-44 -199 0
-45 -200 0
-41 -201 0
-42 -202 0
-43 -203 0
-44 -204 0
-45 -205 0
-41 -211 0
-42 -212 0
-43 -213 0
-44 -214 0
-45 -215 0
-41 -216 0
-42 -217 0
-43 -218 0
-44 -219 0
-45 -220 0
-41 -221 0
-42 -222 0
-43 -223 0
-44 -224 0
-45 -225 0
-46 -56 0
-47 -57 0
-48 -58 0
-49 -59 0
-50 -60 0
-46 -71 0
-47 -72 0
-48 -73 0
-49 -74 0
-50 -75 0
-46 -76 0
-47 -77 0
-48 -78 0
-49 -79 0
-50 -80 0
-46 -91 0
-47 -92 0
-48 -93 0
-49 -94 0
-50 -95 0
-46 -111 0
-47 -112 0
-48 -113 0
-49 -114 0
-50 -115 0
-46 -121 0
-47 -122 0
-48 -123 0
-49 -124 0
-50 -125 0
-46 -126 0
-47 -127 0
-48 -128 0
-49 -129 0
-50 -130 0
-46 -131 0
-47 -132 0
-48 -133 0
-49 -134 0
-50 -135 0
-46 -136 0
-47 -137 0
-48 -138 0
-49 -139 0
-50 -140 0
-46 -146 0
-47 -147 0
-48 -148 0
-49 -149 0
-50 -150 0
-46 -156 0
-47 -157 0
-48 -158 0
-49 -159 0
-50 -160 0
-46 -161 0
-47 -162 0
-48 -163 0
-49 -164 0
-50 -165 0
-46 -171 0
-47 -172 0
-48 -173 0
-49 -174 0
-50 -175 0
-46 -176 0
-47 -177 0
-48 -178 0
-49 -179 0
-50 -180 0
-46 -196 0
-47 -197 0
-48 -198 0
-49 -199 0
-50 -200 0
-46 -201 0
-47 -202 0
-48 -203 0
-49 -204 0
-50 -205 0
-46 -206 0
-47 -207 0
-48 -208 0
-49 -209 0
-50 -210 0
-46 -231 0
-47 -232 0
-48 -233 0
-49 -234 0
-50 -235 0
-46 -236 0
-47 -237 0
-48 -238 0
-49 -239 0
-50 -240 0
-51 -61 0
-52 -62 0
-53 -63 0
-54 -64 0
-55 -65 0
-51 -66 0
-52 -67 0
-53 -68 0
-54 -69 0
-55 -70 0
-51 -76 0
-52 -77 0
-53 -78 0
-54 -79 0
-55 -80 0
-51 -86 0
-52 -87 0
-53 -88 0
-54 -89 0
-55 -90 0
-51 -91 0
-52 -92 0
-53 -93 0
-54 -94 0
-55 -95 0
-51 -101 0
-52 -102 0
-53 -103 0
-54 -104 0
-55 -105 0
-51 -121 0
-52 -122 0
-53 -123 0
-54 -124 0
-55 -125 0
-51 -151 0
-52 -152 0
-53 -153 0
-54 -154 0
-55 -155 0
-51 -156 0
-52 -157 0
-53 -158 0
-54 -159 0
-55 -160 0
-51 -161 0
-52 -162 0
-53 -163 0
-54 -164 0
-55 -165 0
-51 -186 0
-52 -187 0
-53 -188 0
-54 -189 0
-55 -190 0
-51 -201 0
-52 -202 0
-53 -203 0
-54 -204 0
-55 -205 0
-51 -206 0
-52 -207 0
-53 -208 0
-54 -209 0
-55 -210 0
-51 -211 0
-52 -212 0
-53 -213 0
-54 -214 0
-55 -215 0
-51 -226 0
-52 -227 0
-53 -228 0
-54 -229 0
-55 -230 0
-51 -231 0
-52 -232 0
-53 -233 0
-54 -234 0
-55 -235 0
-51 -246 0
-52 -247 0
-53 -248 0
-54 -249 0
-55 -250 0
-56 -61 0
-57 -62 0
-58 -63 0
-59 -64 0
-60 -65 0
-56 -66 0
-57 -67 0
-58 -68 0
-59 -69 0
-60 -70 0
-56 -76 0
-57 -77 0
-58 -78 0
-59 -79 0
-60 -80 0
-56 -81 0
-57 -82 0
-58 -83 0
-59 -84 0
-60 -85 0
-56 -86 0
-57 -87 0
-58 -88 0
-59 -89 0
-60 -90 0
-56 -91 0
-57 -92 0
-58 -93 0
-59 -94 0
-60 -95 0
-56 -96 0
-57 -97 0
-58 -98 0
-59 -99 0
-60 -100 0
-56 -106 0
-57 -107 0
-58 -108 0
-59 -109 0
-60 -110 0
-56 -146 0
-57 -147 0
-58 -148 0
-59 -149 0
-60 -150 0
-56 -156 0
-57 -157 0
-58 -158 0
-59 -159 0
-60 -160 0
-56 -161 0
-57 -162 0
-58 -163 0
-59 -164 0
-60 -165 0
-56 -196 0
-57 -197 0
-58 -198 0
-59 -199 0
-60 -200 0
-56 -211 0
-57 -212 0
-58 -213 0
-59 -214 0
-60 -215 0
-56 -226 0
-57 -227 0
-58 -228 0
-59 -229 0
-60 -230 0
-56 -246 0
-57 -247 0
-58 -248 0
-59 -249 0
-60 -250 0
-61 -71 0
-62 -72 0
-63 -73 0
-64 -74 0
-65 -75 0
-61 -76 0
-62 -77 0
-63 -78 0
-64 -79 0
-65 -80 0
-61 -101 0
-62 -102 0
-63 -103 0
-64 -104 0
-65 -105 0
-61 -121 0
-62 -122 0
-63 -123 0
-64 -124 0
-65 -125 0
-61 -126 0
-62 -127 0
-63 -128 0
-64 -129 0
-65 -130 0
-61 -131 0
-62 -132 0
-63 -133 0
-64 -134 0
-65 -135 0
-61 -146 0
-62 -147 0
-63 -148 0
-64 -149 0
-65 -150 0
-61 -161 0
-62 -162 0
-63 -163 0
-64 -164 0
-65 -165 0
-61 -171 0
-62 -172 0
-63 -173 0
-64 -174 0
-65 -175 0
-61 -181 0
-62 -182 0
-63 -183 0
-64 -184 0
-65 -185 0
-61 -186 0
-62 -187 0
-63 -188 0
-64 -189 0
-65 -190 0
-61 -196 0
-62 -197 0
-63 -198 0
-64 -199 0
-65 -200 0
-61 -201 0
-62 -202 0
-63 -203 0
-64 -204 0
-65 -205 0
-61 -206 0
-62 -207 0
-63 -208 0
-64 -209 0
-65 -210 0
-61 -221 0
-62 -222 0
-63 -223 0
-64 -224 0
-65 -225 0
-61 -246 0
-62 -247 0
-63 -248 0
-64 -249 0
-65 -250 0
-66 -76 0
-67 -77 0
-68 -78 0
-69 -79 0
-70 -80 0
-66 -81 0
-67 -82 0
-68 -83 0
-69 -84 0
-70 -85 0
-66 -96 0
-67 -97 0
-68 -98 0
-69 -99 0
-70 -100 0
-66 -101 0
-67 -102 0
-68 -103 0
-69 -104 0
-70 -105 0
-66 -106 0
-67 -107 0
-68 -108 0
-69 -109 0
-70 -110 0
-66 -121 0
-67 -122 0
-68 -123 0
-69 -124 0
-70 -125 0
-66 -126 0
-67 -127 0
-68 -128 0
-69 -129 0
-70 -130 0
-66 -131 0
-67 -132 0
-68 -133 0
-69 -134 0
-70 -135 0
-66 -141 0
-67 -142 0
-68 -143 0
-69 -144 0
-70 -145 0
-66 -146 0
-67 -147 0
-68 -148 0
-69 -149 0
-70 -150 0
-66 -151 0
-67 -152 0
-68 -153 0
-69 -154 0
-70 -155 0
-66 -156 0
-67 -157 0
-68 -158 0
-69 -159 0
-70 -160 0
-66 -161 0
-67 -162 0
-68 -163 0
-69 -164 0
-70 -165 0
-66 -166 0
-67 -167 0
-68 -168 0
-69 -169 0
-70 -170 0
-66 -186 0
-67 -187 0
-68 -188 0
-69 -189 0
-70 -190 0
-66 -196 0
-67 -197 0
-68 -198 0
-69 -199 0
-70 -200 0
-66 -201 0
-67 -202 0
-68 -203 0
-69 -204 0
-70 -205 0
-66 -206 0
-67 -207 0
-68 -208 0
-69 -209 0
-70 -210 0
-71 -76 0
-72 -77 0
-73 -78 0
-74 -79 0
-75 -80 0
-71 -101 0
-72 -102 0
-73 -103 0
-74 -104 0
-75 -105 0
-71 -131 0
-72 -132 0
-73 -133 0
-74 -134 0
-75 -135 0
-71 -136 0
-72 -137 0
-73 -138 0
-74 -139 0
-75 -140 0
-71 -151 0
-72 -152 0
-73 -153 0
-74 -154 0
-75 -155 0
-71 -171 0
-72 -172 0
-73 -173 0
-74 -174 0
-75 -175 0
-71 -196 0
-72 -197 0
-73 -198 0
-74 -199 0
-75 -200 0
-71 -201 0
-72 -202 0
-73 -203 0
-74 -204 0
-75 -205 0
-71 -216 0
-72 -217 0
-73 -218 0
-74 -219 0
-75 -220 0
-71 -226 0
-72 -227 0
-73 -228 0
-74 -229 0
-75 -230 0
-71 -236 0
-72 -237 0
-73 -238 0
-74 -239 0
-75 -240 0
-71 -241 0
-72 -242 0
-73 -243 0
-74 -244 0
-75 -245 0
-71 -246 0
-72 -247 0
-73 -248 0
-74 -249 0
-75 -250 0
-76 -81 0
-77 -82 0
-78 -83 0
-79 -84 0
-80 -85 0
-76 -101 0
-77 -102 0
-78 -103 0
-79 -104 0
-80 -105 0
-76 -116 0
-77 -117 0
-78 -118 0
-79 -119 0
-80 -120 0
-76 -136 0
-77 -137 0
-78 -138 0
-79 -139 0
-80 -140 0
-76 -141 0
-77 -142 0
-78 -143 0
-79 -144 0
-80 -145 0
-76 -146 0
-77 -147 0
-78 -148 0
-79 -149 0
-80 -150 0
-76 -156 0
-77 -157 0
-78 -158 0
-79 -159 0
-80 -160 0
-76 -191 0
-77 -192 0
-78 -193 0
-79 -194 0
-80 -195 0
-76 -216 0
-77 -217 0
-78 -218 0
-79 -219 0
-80 -220 0
-76 -221 0
-77 -222 0
-78 -223 0
-79 -224 0
-80 -225 0
-76 -231 0
-77 -232 0
-78 -233 0
-79 -234 0
-80 -235 0
-76 -246 0
-77 -247 0
-78 -248 0
-79 -249 0
-80 -250 0
-81 -91 0
-82 -92 0
-83 -93 0
-84 -94 0
-85 -95 0
-81 -96 0
-82 -97 0
-83 -98 0
-84 -99 0
-85 -100 0
-81 -101 0
-82 -102 0
-83 -103 0
-84 -104 0
-85 -105 0
-81 -111 0
-82 -112 0
-83 -113 0
-84 -114 0
-85 -115 0
-81 -121 0
-82 -122 0
-83 -123 0
-84 -124 0
-85 -125 0
-81 -141 0
-82 -142 0
-83 -143 0
-84 -144 0
-85 -145 0
-81 -176 0
-82 -177 0
-83 -178 0
-84 -179 0
-85 -180 0
-81 -191 0
-82 -192 0
-83 -193 0
-84 -194 0
-85 -195 0
-81 -201 0
-82 -202 0
-83 -203 0
-84 -204 0
-85 -205 0
-81 -206 0
-82 -207 0
-83 -208 0
-84 -209 0
-85 -210 0
-81 -226 0
-82 -227 0
-83 -228 0
-84 -229 0
-85 -230 0
-81 -231 0
-82 -232 0
-83 -233 0
-84 -234 0
-85 -235 0
-81 -236 0
-82 -237 0
-83 -238 0
-84 -239 0
-85 -240 0
-81 -246 0
-82 -247 0
-83 -248 0
-84 -249 0
-85 -250 0
-86 -91 0
-87 -92 0
-88 -93 0
-89 -94 0
-90 -95 0
-86 -106 0
-87 -107 0
-88 -108 0
-89 -109 0
-90 -110 0
-86 -116 0
-87 -117 0
-88 -118 0
-89 -119 0
-90 -120 0
-86 -126 0
-87 -127 0
-88 -128 0
-89 -129 0
-90 -130 0
-86 -131 0
-87 -132 0
-88 -133 0
-89 -134 0
-90 -135 0
-86 -136 0
-87 -137 0
-88 -138 0
-89 -139 0
-90 -140 0
-86 -141 0
-87 -142 0
-88 -143 0
-89 -144 0
-90 -145 0
-86 -186 0
-87 -187 0
-88 -188 0
-89 -189 0
-90 -190 0
-86 -196 0
-87 -197 0
-88 -198 0
-89 -199 0
-90 -200 0
-86 -226 0
-87 -227 0
-88 -228 0
-89 -229 0
-90 -230 0
-86 -236 0
-87 -237 0
-88 -238 0
-89 -239 0
-90 -240 0
-91 -96 0
-92 -97 0
-93 -98 0
-94 -99 0
-95 -100 0
-91 -101 0
-92 -102 0
-93 -103 0
-94 -104 0
-95 -105 0
-91 -121 0
-92 -122 0
-93 -123 0
-94 -124 0
-95 -125 0
-91 -166 0
-92 -167 0
-93 -168 0
-94 -169 0
-95 -170 0
-91 -181 0
-92 -182 0
-93 -183 0
-94 -184 0
-95 -185 0
-91 -196 0
-92 -197 0
-93 -198 0
-94 -199 0
-95 -200 0
-91 -201 0
-92 -202 0
-93 -203 0
-94 -204 0
-95 -205 0
-91 -216 0
-92 -217 0
-93 -218 0
-94 -219 0
-95 -220 0
-91 -221 0
-92 -222 0
-93 -223 0
-94 -224 0
-95 -225 0
-91 -241 0
-92 -242 0
-93 -243 0
-94 -244 0
-95 -245 0
-91 -246 0
-92 -247 0
-93 -248 0
-94 -249 0
-95 -250 0
-96 -126 0
-97 -127 0
-98 -128 0
-99 -129 0
-100 -130 0
-96 -136 0
-97 -137 0
-98 -138 0
-99 -139 0
-100 -140 0
-96 -146 0
-97 -147 0
-98 -148 0
-99 -149 0
-100 -150 0
-96 -171 0
-97 -172 0
-98 -173 0
-99 -174 0
-100 -175 0
-96 -186 0
-97 -187 0
-98 -188 0
-99 -189 0
-100 -190 0
-96 -201 0
-97 -202 0
-98 -203 0
-99 -204 0
-100 -205 0
-96 -211 0
-97 -212 0
-98 -213 0
-99 -214 0
-100 -215 0
-96 -216 0
-97 -217 0
-98 -218 0
-99 -219 0
-100 -220 0
-96 -221 0
-97 -222 0
-98 -223 0
-99 -224 0
-100 -225 0
-96 -236 0
-97 -237 0
-98 -238 0
-99 -239 0
-100 -240 0
-101 -111 0
-102 -112 0
-103 -113 0
-104 -114 0
-105 -115 0
-101 -131 0
-102 -132 0
-103 -133 0
-104 -134 0
-105 -135 0
-101 -146 0
-102 -147 0
-103 -148 0
-104 -149 0
-105 -150 0
-101 -151 0
-102 -152 0
-103 -153 0
-104 -154 0
-105 -155 0
-101 -156 0
-102 -157 0
-103 -158 0
-104 -159 0
-105 -160 0
-101 -161 0
-102 -162 0
-103 -163 0
-104 -164 0
-105 -165 0
-101 -166 0
-102 -167 0
-103 -168 0
-104 -169 0
-105 -170 0
-101 -171 0
-102 -172 0
-103 -173 0
-104 -174 0
-105 -175 0
-101 -176 0
-102 -177 0
-103 -178 0
-104 -179 0
-105 -180 0
-101 -206 0
-102 -207 0
-103 -208 0
-104 -209 0
-105 -210 0
-101 -231 0
-102 -232 0
-103 -233 0
-104 -234 0
-105 -235 0
-101 -236 0
-102 -237 0
-103 -238 0
-104 -239 0
-105 -240 0
-101 -246 0
-102 -247 0
-103 -248 0
-104 -249 0
-105 -250 0
-106 -116 0
-107 -117 0
-108 -118 0
-109 -119 0
-110 -120 0
-106 -126 0
-107 -127 0
-108 -128 0
-109 -129 0
-110 -130 0
-106 -151 0
-107 -152 0
-108 -153 0
-109 -154 0
-110 -155 0
-106 -156 0
-107 -157 0
-108 -158 0
-109 -159 0
-110 -160 0
-106 -206 0
-107 -207 0
-108 -208 0
-109 -209 0
-110 -210 0
-106 -221 0
-107 -222 0
-108 -223 0
-109 -224 0
-110 -225 0
-106 -231 0
-107 -232 0
-108 -233 0
-109 -234 0
-110 -235 0
-111 -121 0
-112 -122 0
-113 -123 0
-114 -124 0
-115 -125 0
-111 -131 0
-112 -132 0
-113 -133 0
-114 -134 0
-115 -135 0
-111 -146 0
-112 -147 0
-113 -148 0
-114 -149 0
-115 -150 0
-111 -151 0
-112 -152 0
-113 -153 0
-114 -154 0
-115 -155 0
-111 -161 0
-112 -162 0
-113 -163 0
-114 -164 0
-115 -165 0
-111 -171 0
-112 -172 0
-113 -173 0
-114 -174 0
-115 -175 0
-111 -176 0
-112 -177 0
-113 -178 0
-114 -179 0
-115 -180 0
-111 -186 0
-112 -187 0
-113 -188 0
-114 -189 0
-115 -190 0
-111 -191 0
-112 -192 0
-113 -193 0
-114 -194 0
-115 -195 0
-111 -201 0
-112 -202 0
-113 -203 0
-114 -204 0
-115 -205 0
-111 -216 0
-112 -217 0
-113 -218 0
-114 -219 0
-115 -220 0
-111 -241 0
-112 -242 0
-113 -243 0
-114 -244 0
-115 -245 0
-116 -126 0
-117 -127 0
-118 -128 0
-119 -129 0
-120 -130 0
-116 -146 0
-117 -147 0
-118 -148 0
-119 -149 0
-120 -150 0
-116 -151 0
-117 -152 0
-118 -153 0
-119 -154 0
-120 -155 0
-116 -156 0
-117 -157 0
-118 -158 0
-119 -159 0
-120 -160 0
-116 -171 0
-117 -172 0
-118 -173 0
-119 -174 0
-120 -175 0
-116 -176 0
-117 -177 0
-118 -178 0
-119 -179 0
-120 -180 0
-116 -181 0
-117 -182 0
-118 -183 0
-119 -184 0
-120 -185 0
-116 -201 0
-117 -202 0
-118 -203 0
-119 -204 0
-120 -205 0
-116 -216 0
-117 -217 0
-118 -218 0
-119 -219 0
-120 -220 0
-116 -236 0
-117 -237 0
-118 -238 0
-119 -239 0
-120 -240 0
-116 -246 0
-117 -247 0
-118 -248 0
-119 -249 0
-120 -250 0
-121 -136 0
-122 -137 0
-123 -138 0
-124 -139 0
-125 -140 0
-121 -151 0
-122 -152 0
-123 -153 0
-124 -154 0
-125 -155 0
-121 -156 0
-122 -157 0
-123 -158 0
-124 -159 0
-125 -160 0
-121 -166 0
-122 -167 0
-123 -168 0
-124 -169 0
-125 -170 0
-121 -171 0
-122 -172 0
-123 -173 0
-124 -174 0
-125 -175 0
-121 -191 0
-122 -192 0
-123 -193 0
-124 -194 0
-125 -195 0
-121 -196 0
-122 -197 0
-123 -198 0
-124 -199 0
-125 -200 0
-121 -201 0
-122 -202 0
-123 -203 0
-124 -204 0
-125 -205 0
-121 -211 0
-122 -212 0
-123 -213 0
-124 -214 0
-125 -215 0
-121 -226 0
-122 -227 0
-123 -228 0
-124 -229 0
-125 -230 0
-121 -246 0
-122 -247 0
-123 -248 0
-124 -249 0
-125 -250 0
-126 -136 0
-127 -137 0
-128 -138 0
-129 -139 0
-130 -140 0
-126 -151 0
-127 -152 0
-128 -153 0
-129 -154 0
-130 -155 0
-126 -156 0
-127 -157 0
-128 -158 0
-129 -159 0
-130 -160 0
-126 -161 0
-127 -162 0
-128 -163 0
-129 -164 0
-130 -165 0
-126 -171 0
-127 -172 0
-128 -173 0
-129 -174 0
-130 -175 0
-126 -186 0
-127 -187 0
-128 -188 0
-129 -189 0
-130 -190 0
-126 -206 0
-127 -207 0
-128 -208 0
-129 -209 0
-130 -210 0
-126 -211 0
-127 -212 0
-128 -213 0
-129 -214 0
-130 -215 0
-126 -216 0
-127 -217 0
-128 -218 0
-129 -219 0
-130 -220 0
-126 -241 0
-127 -242 0
-128 -243 0
-129 -244 0
-130 -245 0
-131 -176 0
-132 -177 0
-133 -178 0
-134 -179 0
-135 -180 0
-131 -191 0
-132 -192 0
-133 -193 0
-134 -194 0
-135 -195 0
-131 -196 0
-132 -197 0
-133 -198 0
-134 -199 0
-135 -200 0
-131 -226 0
-132 -227 0
-133 -228 0
-134 -229 0
-135 -230 0
-131 -236 0
-132 -237 0
-133 -238 0
-134 -239 0
-135 -240 0
-131 -246 0
-132 -247 0
-133 -248 0
-134 -249 0
-135 -250 0
-136 -141 0
-137 -142 0
-138 -143 0
-139 -144 0
-140 -145 0
-136 -146 0
-137 -147 0
-138 -148 0
-139 -149 0
-140 -150 0
-136 -151 0
-137 -152 0
-138 -153 0
-139 -154 0
-140 -155 0
-136 -156 0
-137 -157 0
-138 -158 0
-139 -159 0
-140 -160 0
-136 -161 0
-137 -162 0
-138 -163 0
-139 -164 0
-140 -165 0
-136 -171 0
-137 -172 0
-138 -173 0
-139 -174 0
-140 -175 0
-136 -176 0
-137 -177 0
-138 -178 0
-139 -179 0
-140 -180 0
-136 -181 0
-137 -182 0
-138 -183 0
-139 -184 0
-140 -185 0
-136 -186 0
-137 -187 0
-138 -188 0
-139 -189 0
-140 -190 0
-136 -191 0
-137 -192 0
-138 -193 0
-139 -194 0
-140 -195 0
-136 -196 0
-137 -197 0
-138 -198 0
-139 -199 0
-140 -200 0
-136 -201 0
-137 -202 0
-138 -203 0
-139 -204 0
-140 -205 0
-136 -211 0
-137 -212 0
-138 -213 0
-139 -214 0
-140 -215 0
-136 -231 0
-137 -232 0
-138 -233 0
-139 -234 0
-140 -235 0
-141 -151 0
-142 -152 0
-143 -153 0
-144 -154 0
-145 -155 0
-141 -156 0
-142 -157 0
-143 -158 0
-144 -159 0
-145 -160 0
-141 -166 0
-142 -167 0
-143 -168 0
-144 -169 0
-145 -170 0
-141 -201 0
-142 -202 0
-143 -203 0
-144 -204 0
-145 -205 0
-141 -231 0
-142 -232 0
-143 -233 0
-144 -234 0
-145 -235 0
-146 -151 0
-147 -152 0
-148 -153 0
-149 -154 0
-150 -155 0
-146 -176 0
-147 -177 0
-148 -178 0
-149 -179 0
-150 -180 0
-146 -201 0
-147 -202 0
-148 -203 0
-149 -204 0
-150 -205 0
-146 -211 0
-147 -212 0
-148 -213 0
-149 -214 0
-150 -215 0
-146 -226 0
-147 -227 0
-148 -228 0
-149 -229 0
-150 -230 0
-146 -236 0
-147 -237 0
-148 -238 0
-149 -239 0
-150 -240 0
-151 -156 0
-152 -157 0
-153 -158 0
-154 -159 0
-155 -160 0
-151 -161 0
-152 -162 0
-153 -163 0
-154 -164 0
-155 -165 0
-151 -166 0
-152 -167 0
-153 -168 0
-154 -169 0
-155 -170 0
-151 -181 0
-152 -182 0
-153 -183 0
-154 -184 0
-155 -185 0
-151 -191 0
-152 -192 0
-153 -193 0
-154 -194 0
-155 -195 0
-151 -206 0
-152 -207 0
-153 -208 0
-154 -209 0
-155 -210 0
-151 -221 0
-152 -222 0
-153 -223 0
-154 -224 0
-155 -225 0
-151 -226 0
-152 -227 0
-153 -228 0
-154 -229 0
-155 -230 0
-151 -236 0
-152 -237 0
-153 -238 0
-154 -239 0
-155 -240 0
-151 -241 0
-152 -242 0
-153 -243 0
-154 -244 0
-155 -245 0
-156 -166 0
-157 -167 0
-158 -168 0
-159 -169 0
-160 -170 0
-156 -176 0
-157 -177 0
-158 -178 0
-159 -179 0
-160 -180 0
-156 -186 0
-157 -187 0
-158 -188 0
-159 -189 0
-160 -190 0
-156 -201 0
-157 -202 0
-158 -203 0
-159 -204 0
-160 -205 0
-156 -206 0
-157 -207 0
-158 -208 0
-159 -209 0
-160 -210 0
-156 -216 0
-157 -217 0
-158 -218 0
-159 -219 0
-160 -220 0
-156 -221 0
-157 -222 0
-158 -223 0
-159 -224 0
-160 -225 0
-156 -231 0
-157 -232 0
-158 -233 0
-159 -234 0
-160 -235 0
-156 -236 0
-157 -237 0
-158 -238 0
-159 -239 0
-160 -240 0
-161 -186 0
-162 -187 0
-163 -188 0
-164 -189 0
-165 -190 0
-161 -211 0
-162 -212 0
-163 -213 0
-164 -214 0
-165 -215 0
-161 -221 0
-162 -222 0
-163 -223 0
-164 -224 0
-165 -225 0
-161 -226 0
-162 -227 0
-163 -228 0
-164 -229 0
-165 -230 0
-161 -236 0
-162 -237 0
-163 -238 0
-164 -239 0
-165 -240 0
-166 -181 0
-167 -182 0
-168 -183 0
-169 -184 0
-170 -185 0
-166 -211 0
-167 -212 0
-168 -213 0
-169 -214 0
-170 -215 0
-166 -231 0
-167 -232 0
-168 -233 0
-169 -234 0
-170 -235 0
-166 -236 0
-167 -237 0
-168 -238 0
-169 -239 0
-170 -240 0
-171 -201 0
-172 -202 0
-173 -203 0
-174 -204 0
-175 -205 0
-171 -206 0
-172 -207 0
-173 -208 0
-174 -209 0
-175 -210 0
-171 -221 0
-172 -222 0
-173 -223 0
-174 -224 0
-175 -225 0
-176 -186 0
-177 -187 0
-178 -188 0
-179 -189 0
-180 -190 0
-176 -206 0
-177 -207 0
-178 -208 0
-179 -209 0
-180 -210 0
-176 -211 0
-177 -212 0
-178 -213 0
-179 -214 0
-180 -215 0
-176 -221 0
-177 -222 0
-178 -223 0
-179 -224 0
-180 -225 0
-176 -226 0
-177 -227 0
-178 -228 0
-179 -229 0
-180 -230 0
-176 -231 0
-177 -232 0
-178 -233 0
-179 -234 0
-180 -235 0
-176 -236 0
-177 -237 0
-178 -238 0
-179 -239 0
-180 -240 0
-176 -241 0
-177 -242 0
-178 -243 0
-179 -244 0
-180 -245 0
-176 -246 0
-177 -247 0
-178 -248 0
-179 -249 0
-180 -250 0
-181 -191 0
-182 -192 0
-183 -193 0
-184 -194 0
-185 -195 0
-181 -196 0
-182 -197 0
-183 -198 0
-184 -199 0
-185 -200 0
-181 -201 0
-182 -202 0
-183 -203 0
-184 -204 0
-185 -205 0
-181 -206 0
-182 -207 0
-183 -208 0
-184 -209 0
-185 -210 0
-181 -211 0
-182 -212 0
-183 -213 0
-184 -214 0
-185 -215 0
-181 -236 0
-182 -237 0
-183 -238 0
-184 -239 0
-185 -240 0
-186 -191 0
-187 -192 0
-188 -193 0
-189 -194 0
-190 -195 0
-186 -196 0
-187 -197 0
-188 -198 0
-189 -199 0
-190 -200 0
-186 -211 0
-187 -212 0
-188 -213 0
-189 -214 0
-190 -215 0
-186 -221 0
-187 -222 0
-188 -223 0
-189 -224 0
-190 -225 0
-186 -246 0
-187 -247 0
-188 -248 0
-189 -249 0
-190 -250 0
-191 -221 0
-192 -222 0
-193 -223 0
-194 -224 0
-195 -225 0
-191 -226 0
-192 -227 0
-193 -228 0
-194 -229 0
-195 -230 0
-191 -231 0
-192 -232 0
-193 -233 0
-194 -234 0
-195 -235 0
-196 -221 0
-197 -222 0
-198 -223 0
-199 -224 0
-200 -225 0
-196 -226 0
-197 -227 0
-198 -228 0
-199 -229 0
-200 -230 0
-196 -246 0
-197 -247 0
-198 -248 0
-199 -249 0
-200 -250 0
-201 -211 0
-202 -212 0
-203 -213 0
-204 -214 0
-205 -215 0
-201 -216 0
-202 -217 0
-203 -218 0
-204 -219 0
-205 -220 0
-201 -221 0
-202 -222 0
-203 -223 0
-204 -224 0
-205 -225 0
-201 -226 0
-202 -227 0
-203 -228 0
-204 -229 0
-205 -230 0
-201 -236 0
-202 -237 0
-203 -238 0
-204 -239 0
-205 -240 0
-201 -241 0
-202 -242 0
-203 -243 0
-204 -244 0
-205 -245 0
-206 -211 0
-207 -212 0
-208 -213 0
-209 -214 0
-210 -215 0
-206 -216 0
-207 -217 0
-208 -218 0
-209 -219 0
-210 -220 0
-206 -221 0
-207 -222 0
-208 -223 0
-209 -224 0
-210 -225 0
-206 -226 0
-207 -227 0
-208 -228 0
-209 -229 0
-210 -230 0
-206 -231 0
-207 -232 0
-208 -233 0
-209 -234 0
-210 -235 0
-206 -236 0
-207 -237 0
-208 -238 0
-209 -239 0
-210 -240 0
-206 -241 0
-207 -242 0
-208 -243 0
-209 -244 0
-210 -245 0
-206 -246 0
-207 -247 0
-208 -248 0
-209 -249 0
-210 -250 0
-211 -216 0
-212 -217 0
-213 -218 0
-214 -219 0
-215 -220 0
-211 -221 0
-212 -222 0
-213 -223 0
-214 -224 0
-215 -225 0
-211 -226 0
-212 -227 0
-213 -228 0
-214 -229 0
-215 -230 0
-216 -221 0
-217 -222 0
-218 -223 0
-219 -224 0
-220 -225 0
-216 -226 0
-217 -227 0
-218 -228 0
-219 -229 0
-220 -230 0
-221 -231 0
-222 -232 0
-223 -233 0
-224 -234 0
-225 -235 0
-221 -236 0
-222 -237 0
-223 -238 0
-224 -239 0
-225 -240 0
-221 -246 0
-222 -247 0
-223 -248 0
-224 -249 0
-225 -250 0
-226 -236 0
-227 -237 0
-228 -238 0
-229 -239 0
-230 -240 0
-226 -246 0
-227 -247 0
-228 -248 0
-229 -249 0
-230 -250 0
-231 -236 0
-232 -237 0
-233 -238 0
-234 -239 0
-235 -240 0
-241 -246 0
-242 -247 0
-243 -248 0
-244 -249 0
-245 -250 0
